\* column_knapsack_problem *\
Minimize
knapsack: 7 col_0 + 8 col_1 + 4 col_10 + 6 col_100 + 8 col_101 + 8 col_102
 + 7 col_103 + 7 col_104 + 8 col_105 + 7 col_106 + 9 col_107 + 7 col_108
 + 9 col_109 + 5 col_11 + 7 col_110 + 7 col_111 + 8 col_112 + 5 col_113
 + 8 col_114 + 8 col_115 + 7 col_116 + 8 col_117 + 7 col_118 + 6 col_119
 + 6 col_12 + 8 col_120 + 6 col_121 + 6 col_122 + 4 col_123 + 6 col_124
 + 8 col_125 + 6 col_126 + 6 col_127 + 7 col_128 + 7 col_129 + 5 col_13
 + 7 col_130 + 9 col_131 + 8 col_132 + 8 col_133 + 6 col_134 + 7 col_135
 + 6 col_136 + 7 col_137 + 7 col_138 + 4 col_139 + 5 col_14 + 5 col_140
 + 6 col_141 + 9 col_142 + 7 col_143 + 6 col_144 + 9 col_145 + 6 col_146
 + 8 col_147 + 6 col_148 + 6 col_149 + 5 col_15 + 9 col_150 + 9 col_151
 + 7 col_152 + 9 col_153 + 7 col_154 + 9 col_155 + 6 col_156 + 8 col_157
 + 7 col_158 + 6 col_159 + 5 col_16 + 7 col_160 + 7 col_161 + 4 col_162
 + 6 col_163 + 7 col_164 + 8 col_165 + 8 col_166 + 7 col_167 + 8 col_168
 + 7 col_169 + 9 col_17 + 7 col_170 + 7 col_171 + 5 col_172 + 7 col_173
 + 8 col_174 + 8 col_175 + 7 col_176 + 5 col_177 + 5 col_178 + 7 col_179
 + 4 col_18 + 7 col_180 + 6 col_181 + 7 col_182 + 9 col_183 + 6 col_184
 + 8 col_185 + 7 col_186 + 8 col_187 + 7 col_188 + 9 col_189 + 7 col_19
 + 8 col_190 + 8 col_191 + 7 col_192 + 8 col_193 + 8 col_194 + 5 col_195
 + 6 col_196 + 7 col_197 + 4 col_198 + 6 col_199 + 7 col_2 + 9 col_20
 + 6 col_200 + 6 col_201 + 8 col_202 + 7 col_203 + 7 col_204 + 9 col_205
 + 9 col_206 + 7 col_207 + 6 col_208 + 6 col_209 + 3 col_21 + 8 col_210
 + 8 col_211 + 8 col_212 + 9 col_213 + 6 col_214 + 7 col_215 + 6 col_217
 + 9 col_218 + 7 col_219 + 7 col_22 + 7 col_220 + 9 col_221 + 5 col_222
 + 7 col_223 + 7 col_224 + 9 col_225 + 7 col_226 + 6 col_227 + 5 col_228
 + 9 col_229 + 4 col_23 + 8 col_230 + 6 col_231 + 8 col_232 + 6 col_233
 + 6 col_234 + 4 col_235 + 9 col_236 + 8 col_237 + 6 col_238 + 8 col_239
 + 7 col_24 + 6 col_240 + 7 col_241 + 9 col_242 + 7 col_243 + 7 col_244
 + 9 col_245 + 6 col_246 + 6 col_247 + 6 col_248 + 9 col_249 + 6 col_25
 + 7 col_250 + 8 col_251 + 8 col_252 + 7 col_253 + 9 col_254 + 8 col_255
 + 8 col_256 + 7 col_257 + 8 col_258 + 8 col_259 + 7 col_26 + 9 col_260
 + 6 col_261 + 8 col_262 + 6 col_263 + 8 col_264 + 8 col_265 + 7 col_266
 + 7 col_267 + 8 col_268 + 7 col_269 + 4 col_27 + 7 col_270 + 7 col_271
 + 8 col_272 + 6 col_273 + 6 col_274 + 7 col_275 + 8 col_276 + 6 col_277
 + 7 col_278 + 7 col_279 + 5 col_28 + 4 col_280 + 6 col_281 + 8 col_282
 + 8 col_283 + 8 col_284 + 9 col_285 + 4 col_286 + 6 col_287 + 5 col_288
 + 7 col_289 + 7 col_29 + 6 col_290 + 8 col_291 + 5 col_292 + 8 col_293
 + 7 col_294 + 8 col_295 + 8 col_296 + 8 col_297 + 7 col_298 + 7 col_299
 + 7 col_3 + 8 col_30 + 7 col_300 + 5 col_301 + 8 col_302 + 7 col_303
 + 5 col_304 + 4 col_305 + 7 col_306 + 6 col_307 + 7 col_308 + 5 col_309
 + 6 col_31 + 4 col_310 + 6 col_311 + 5 col_312 + 9 col_313 + 6 col_314
 + 9 col_315 + 7 col_316 + 6 col_317 + 4 col_318 + 7 col_319 + 8 col_32
 + 6 col_320 + 6 col_321 + 6 col_322 + 6 col_323 + 5 col_324 + 8 col_325
 + 5 col_326 + 8 col_327 + 7 col_328 + 9 col_329 + 8 col_33 + 6 col_330
 + 7 col_331 + 5 col_332 + 9 col_333 + 8 col_334 + 8 col_335 + 6 col_336
 + 7 col_337 + 8 col_338 + 6 col_339 + 7 col_34 + 7 col_340 + 5 col_341
 + 8 col_342 + 6 col_343 + 8 col_344 + 6 col_345 + 6 col_346 + 7 col_347
 + 7 col_348 + 8 col_349 + 8 col_35 + 6 col_350 + 5 col_351 + 8 col_352
 + 5 col_353 + 8 col_354 + 6 col_355 + 6 col_356 + 8 col_357 + 6 col_358
 + 7 col_359 + 6 col_36 + 7 col_360 + 7 col_361 + 6 col_362 + 7 col_363
 + 6 col_364 + 6 col_365 + 7 col_366 + 6 col_367 + 5 col_368 + 6 col_369
 + 8 col_37 + 7 col_370 + 6 col_371 + 6 col_372 + 5 col_373 + 8 col_374
 + 5 col_375 + 6 col_376 + 6 col_377 + 8 col_378 + 5 col_379 + 5 col_38
 + 5 col_380 + 4 col_381 + 4 col_382 + 5 col_383 + 3 col_384 + 8 col_385
 + 7 col_386 + 9 col_387 + 9 col_388 + 7 col_389 + 9 col_39 + 8 col_390
 + 9 col_391 + 9 col_392 + 8 col_393 + 4 col_394 + 4 col_395 + 8 col_396
 + 8 col_397 + 7 col_398 + 8 col_399 + 7 col_4 + 6 col_40 + 7 col_400
 + 8 col_401 + 5 col_402 + 6 col_403 + 4 col_404 + 6 col_405 + 9 col_406
 + 5 col_407 + 7 col_408 + 9 col_409 + 5 col_41 + 9 col_410 + 9 col_411
 + 5 col_412 + 9 col_413 + 5 col_414 + 4 col_415 + 8 col_416 + 5 col_417
 + 6 col_418 + 8 col_419 + 7 col_42 + 7 col_420 + 9 col_421 + 7 col_422
 + 7 col_423 + 8 col_424 + 9 col_425 + 9 col_426 + 6 col_427 + 7 col_428
 + 7 col_429 + 8 col_43 + 9 col_430 + 8 col_431 + 9 col_432 + 6 col_433
 + 7 col_434 + 6 col_435 + 8 col_436 + 5 col_437 + 8 col_438 + 5 col_439
 + 6 col_44 + 8 col_440 + 5 col_441 + 5 col_442 + 5 col_443 + 8 col_444
 + 4 col_445 + 5 col_446 + 5 col_447 + 5 col_448 + 5 col_449 + 7 col_45
 + 5 col_450 + 5 col_451 + 4 col_452 + 5 col_453 + 7 col_454 + 8 col_455
 + 6 col_456 + 8 col_457 + 8 col_458 + 7 col_459 + 8 col_46 + 8 col_460
 + 7 col_461 + 8 col_462 + 7 col_463 + 7 col_464 + 9 col_465 + 6 col_47
 + 9 col_48 + 8 col_49 + 7 col_5 + 9 col_50 + 7 col_51 + 8 col_52 + 7 col_53
 + 7 col_54 + 7 col_55 + 7 col_56 + 7 col_57 + 7 col_58 + 4 col_59 + 5 col_6
 + 6 col_60 + 7 col_61 + 7 col_62 + 7 col_63 + 9 col_64 + 8 col_65 + 8 col_66
 + 8 col_67 + 7 col_68 + 9 col_69 + 8 col_7 + 7 col_70 + 7 col_71 + 8 col_72
 + 7 col_73 + 6 col_74 + 4 col_75 + 8 col_76 + 8 col_77 + 9 col_78 + 8 col_79
 + 8 col_8 + 6 col_80 + 4 col_81 + 8 col_82 + 7 col_83 + 8 col_84 + 8 col_85
 + 7 col_86 + 8 col_87 + 8 col_88 + 7 col_89 + 7 col_9 + 7 col_90 + 7 col_91
 + 7 col_92 + 9 col_93 + 7 col_94 + 7 col_95 + 8 col_96 + 7 col_97 + 8 col_98
 + 5 col_99
Subject To
sensitivity: 2 col_0 + col_1 + 5 col_10 + 3 col_100 + col_101 + col_102
 + 2 col_103 + 2 col_104 + col_105 + 2 col_106 + 2 col_108 + 4 col_11
 + 2 col_110 + 2 col_111 + col_112 + 4 col_113 + col_114 + col_115 + 2 col_116
 + col_117 + 2 col_118 + 3 col_119 + 3 col_12 + col_120 + 3 col_121
 + 3 col_122 + 5 col_123 + 3 col_124 + col_125 + 3 col_126 + 3 col_127
 + 2 col_128 + 2 col_129 + 4 col_13 + 2 col_130 + col_132 + col_133
 + 3 col_134 + 2 col_135 + 3 col_136 + 2 col_137 + 2 col_138 + 5 col_139
 + 4 col_14 + 4 col_140 + 3 col_141 + 2 col_143 + 3 col_144 + 3 col_146
 + col_147 + 3 col_148 + 3 col_149 + 4 col_15 + 2 col_152 + 2 col_154
 + 3 col_156 + col_157 + 2 col_158 + 3 col_159 + 4 col_16 + 2 col_160
 + 2 col_161 + 5 col_162 + 3 col_163 + 2 col_164 + col_165 + col_166
 + 2 col_167 + col_168 + 2 col_169 + 2 col_170 + 2 col_171 + 4 col_172
 + 2 col_173 + col_174 + col_175 + 2 col_176 + 4 col_177 + 4 col_178
 + 2 col_179 + 5 col_18 + 2 col_180 + 3 col_181 + 2 col_182 + 3 col_184
 + col_185 + 2 col_186 + col_187 + 2 col_188 + 2 col_19 + col_190 + col_191
 + 2 col_192 + col_193 + col_194 + 4 col_195 + 3 col_196 + 2 col_197
 + 5 col_198 + 3 col_199 + 2 col_2 + 3 col_200 + 3 col_201 + col_202
 + 2 col_203 + 2 col_204 + 2 col_207 + 3 col_208 + 3 col_209 + 6 col_21
 + col_210 + col_211 + col_212 + 3 col_214 + 2 col_215 + 3 col_217 + 2 col_219
 + 2 col_22 + 2 col_220 + 4 col_222 + 2 col_223 + 2 col_224 + 2 col_226
 + 3 col_227 + 4 col_228 + 5 col_23 + col_230 + 3 col_231 + col_232
 + 3 col_233 + 3 col_234 + 5 col_235 + col_237 + 3 col_238 + col_239
 + 2 col_24 + 3 col_240 + 2 col_241 + 2 col_243 + 2 col_244 + 3 col_246
 + 3 col_247 + 3 col_248 + 3 col_25 + 2 col_250 + col_251 + col_252
 + 2 col_253 + col_255 + col_256 + 2 col_257 + col_258 + col_259 + 2 col_26
 + 3 col_261 + col_262 + 3 col_263 + col_264 + col_265 + 2 col_266 + 2 col_267
 + col_268 + 2 col_269 + 5 col_27 + 2 col_270 + 2 col_271 + col_272
 + 3 col_273 + 3 col_274 + 2 col_275 + col_276 + 3 col_277 + 2 col_278
 + 2 col_279 + 4 col_28 + 5 col_280 + 3 col_281 + col_282 + col_283 + col_284
 + 5 col_286 + 3 col_287 + 4 col_288 + 2 col_289 + 2 col_29 + 3 col_290
 + col_291 + 4 col_292 + col_293 + 2 col_294 + col_295 + col_296 + col_297
 + 2 col_298 + 2 col_299 + 2 col_3 + col_30 + 2 col_300 + 4 col_301 + col_302
 + 2 col_303 + 4 col_304 + 5 col_305 + 2 col_306 + 3 col_307 + 2 col_308
 + 4 col_309 + 3 col_31 + 5 col_310 + 3 col_311 + 4 col_312 + 3 col_314
 + 2 col_316 + 3 col_317 + 5 col_318 + 2 col_319 + col_32 + 3 col_320
 + 3 col_321 + 3 col_322 + 3 col_323 + 4 col_324 + col_325 + 4 col_326
 + col_327 + 2 col_328 + col_33 + 3 col_330 + 2 col_331 + 4 col_332 + col_334
 + col_335 + 3 col_336 + 2 col_337 + col_338 + 3 col_339 + 2 col_34
 + 2 col_340 + 4 col_341 + col_342 + 3 col_343 + col_344 + 3 col_345
 + 3 col_346 + 2 col_347 + 2 col_348 + col_349 + col_35 + 3 col_350
 + 4 col_351 + col_352 + 4 col_353 + col_354 + 3 col_355 + 3 col_356 + col_357
 + 3 col_358 + 2 col_359 + 3 col_36 + 2 col_360 + 2 col_361 + 3 col_362
 + 2 col_363 + 3 col_364 + 3 col_365 + 2 col_366 + 3 col_367 + 4 col_368
 + 3 col_369 + col_37 + 2 col_370 + 3 col_371 + 3 col_372 + 4 col_373
 + col_374 + 4 col_375 + 3 col_376 + 3 col_377 + col_378 + 4 col_379
 + 4 col_38 + 4 col_380 + 5 col_381 + 5 col_382 + 4 col_383 + 6 col_384
 + col_385 + 2 col_386 + 2 col_389 + col_390 + col_393 + 5 col_394 + 5 col_395
 + col_396 + col_397 + 2 col_398 + col_399 + 2 col_4 + 3 col_40 + 2 col_400
 + col_401 + 4 col_402 + 3 col_403 + 5 col_404 + 3 col_405 + 4 col_407
 + 2 col_408 + 4 col_41 + 4 col_412 + 4 col_414 + 5 col_415 + col_416
 + 4 col_417 + 3 col_418 + col_419 + 2 col_42 + 2 col_420 + 2 col_422
 + 2 col_423 + col_424 + 3 col_427 + 2 col_428 + 2 col_429 + col_43 + col_431
 + 3 col_433 + 2 col_434 + 3 col_435 + col_436 + 4 col_437 + col_438
 + 4 col_439 + 3 col_44 + col_440 + 4 col_441 + 4 col_442 + 4 col_443
 + col_444 + 5 col_445 + 4 col_446 + 4 col_447 + 4 col_448 + 4 col_449
 + 2 col_45 + 4 col_450 + 4 col_451 + 5 col_452 + 4 col_453 + 2 col_454
 + col_455 + 3 col_456 + col_457 + col_458 + 2 col_459 + col_46 + col_460
 + 2 col_461 + col_462 + 2 col_463 + 2 col_464 + 3 col_47 + col_49 + 2 col_5
 + 2 col_51 + col_52 + 2 col_53 + 2 col_54 + 2 col_55 + 2 col_56 + 2 col_57
 + 2 col_58 + 5 col_59 + 4 col_6 + 3 col_60 + 2 col_61 + 2 col_62 + 2 col_63
 + col_65 + col_66 + col_67 + 2 col_68 + col_7 + 2 col_70 + 2 col_71 + col_72
 + 2 col_73 + 3 col_74 + 5 col_75 + col_76 + col_77 + col_79 + col_8
 + 3 col_80 + 5 col_81 + col_82 + 2 col_83 + col_84 + col_85 + 2 col_86
 + col_87 + col_88 + 2 col_89 + 2 col_9 + 2 col_90 + 2 col_91 + 2 col_92
 + 2 col_94 + 2 col_95 + col_96 + 2 col_97 + col_98 + 4 col_99 >= 890.1
Binaries
col_0
col_1
col_10
col_100
col_101
col_102
col_103
col_104
col_105
col_106
col_107
col_108
col_109
col_11
col_110
col_111
col_112
col_113
col_114
col_115
col_116
col_117
col_118
col_119
col_12
col_120
col_121
col_122
col_123
col_124
col_125
col_126
col_127
col_128
col_129
col_13
col_130
col_131
col_132
col_133
col_134
col_135
col_136
col_137
col_138
col_139
col_14
col_140
col_141
col_142
col_143
col_144
col_145
col_146
col_147
col_148
col_149
col_15
col_150
col_151
col_152
col_153
col_154
col_155
col_156
col_157
col_158
col_159
col_16
col_160
col_161
col_162
col_163
col_164
col_165
col_166
col_167
col_168
col_169
col_17
col_170
col_171
col_172
col_173
col_174
col_175
col_176
col_177
col_178
col_179
col_18
col_180
col_181
col_182
col_183
col_184
col_185
col_186
col_187
col_188
col_189
col_19
col_190
col_191
col_192
col_193
col_194
col_195
col_196
col_197
col_198
col_199
col_2
col_20
col_200
col_201
col_202
col_203
col_204
col_205
col_206
col_207
col_208
col_209
col_21
col_210
col_211
col_212
col_213
col_214
col_215
col_217
col_218
col_219
col_22
col_220
col_221
col_222
col_223
col_224
col_225
col_226
col_227
col_228
col_229
col_23
col_230
col_231
col_232
col_233
col_234
col_235
col_236
col_237
col_238
col_239
col_24
col_240
col_241
col_242
col_243
col_244
col_245
col_246
col_247
col_248
col_249
col_25
col_250
col_251
col_252
col_253
col_254
col_255
col_256
col_257
col_258
col_259
col_26
col_260
col_261
col_262
col_263
col_264
col_265
col_266
col_267
col_268
col_269
col_27
col_270
col_271
col_272
col_273
col_274
col_275
col_276
col_277
col_278
col_279
col_28
col_280
col_281
col_282
col_283
col_284
col_285
col_286
col_287
col_288
col_289
col_29
col_290
col_291
col_292
col_293
col_294
col_295
col_296
col_297
col_298
col_299
col_3
col_30
col_300
col_301
col_302
col_303
col_304
col_305
col_306
col_307
col_308
col_309
col_31
col_310
col_311
col_312
col_313
col_314
col_315
col_316
col_317
col_318
col_319
col_32
col_320
col_321
col_322
col_323
col_324
col_325
col_326
col_327
col_328
col_329
col_33
col_330
col_331
col_332
col_333
col_334
col_335
col_336
col_337
col_338
col_339
col_34
col_340
col_341
col_342
col_343
col_344
col_345
col_346
col_347
col_348
col_349
col_35
col_350
col_351
col_352
col_353
col_354
col_355
col_356
col_357
col_358
col_359
col_36
col_360
col_361
col_362
col_363
col_364
col_365
col_366
col_367
col_368
col_369
col_37
col_370
col_371
col_372
col_373
col_374
col_375
col_376
col_377
col_378
col_379
col_38
col_380
col_381
col_382
col_383
col_384
col_385
col_386
col_387
col_388
col_389
col_39
col_390
col_391
col_392
col_393
col_394
col_395
col_396
col_397
col_398
col_399
col_4
col_40
col_400
col_401
col_402
col_403
col_404
col_405
col_406
col_407
col_408
col_409
col_41
col_410
col_411
col_412
col_413
col_414
col_415
col_416
col_417
col_418
col_419
col_42
col_420
col_421
col_422
col_423
col_424
col_425
col_426
col_427
col_428
col_429
col_43
col_430
col_431
col_432
col_433
col_434
col_435
col_436
col_437
col_438
col_439
col_44
col_440
col_441
col_442
col_443
col_444
col_445
col_446
col_447
col_448
col_449
col_45
col_450
col_451
col_452
col_453
col_454
col_455
col_456
col_457
col_458
col_459
col_46
col_460
col_461
col_462
col_463
col_464
col_465
col_47
col_48
col_49
col_5
col_50
col_51
col_52
col_53
col_54
col_55
col_56
col_57
col_58
col_59
col_6
col_60
col_61
col_62
col_63
col_64
col_65
col_66
col_67
col_68
col_69
col_7
col_70
col_71
col_72
col_73
col_74
col_75
col_76
col_77
col_78
col_79
col_8
col_80
col_81
col_82
col_83
col_84
col_85
col_86
col_87
col_88
col_89
col_9
col_90
col_91
col_92
col_93
col_94
col_95
col_96
col_97
col_98
col_99
End
